/* Cplex Data generated on 2017-12-15 */

k = 78;

b = 39;

AtomicConstraints = {
	 <2, 3>,
	 <2, 4>,
	 <2, 5>,
	 <2, 6>,
	 <2, 7>,
	 <2, 8>,
	 <2, 9>,
	 <2, 10>,
	 <2, 21>,
	 <2, 22>,
	 <2, 24>,
	 <2, 25>,
	 <2, 26>,
	 <2, 27>,
	 <2, 28>,
	 <2, 29>,
	 <3, 4>,
	 <3, 5>,
	 <3, 6>,
	 <3, 7>,
	 <3, 8>,
	 <3, 9>,
	 <3, 10>,
	 <3, 22>,
	 <3, 24>,
	 <3, 25>,
	 <3, 26>,
	 <3, 27>,
	 <3, 28>,
	 <3, 29>,
	 <4, 5>,
	 <4, 6>,
	 <4, 7>,
	 <4, 8>,
	 <4, 9>,
	 <4, 10>,
	 <4, 24>,
	 <4, 25>,
	 <4, 26>,
	 <4, 27>,
	 <4, 28>,
	 <4, 29>,
	 <5, 6>,
	 <5, 7>,
	 <5, 8>,
	 <5, 9>,
	 <5, 10>,
	 <5, 25>,
	 <5, 26>,
	 <5, 27>,
	 <5, 28>,
	 <5, 29>,
	 <6, 7>,
	 <6, 8>,
	 <6, 9>,
	 <6, 10>,
	 <6, 26>,
	 <6, 27>,
	 <6, 28>,
	 <6, 29>,
	 <7, 8>,
	 <7, 9>,
	 <7, 10>,
	 <7, 27>,
	 <7, 28>,
	 <7, 29>,
	 <8, 9>,
	 <8, 10>,
	 <8, 28>,
	 <8, 29>,
	 <9, 10>,
	 <9, 29>,
	 <1, 2>,
	 <1, 3>,
	 <1, 4>,
	 <1, 5>,
	 <1, 6>,
	 <1, 7>,
	 <1, 8>,
	 <1, 9>,
	 <1, 10>,
	 <1, 11>,
	 <1, 13>,
	 <1, 14>,
	 <1, 15>,
	 <1, 16>,
	 <1, 17>,
	 <1, 18>,
	 <1, 19>,
	 <1, 20>,
	 <1, 21>,
	 <1, 22>,
	 <1, 23>,
	 <1, 24>,
	 <1, 25>,
	 <1, 26>,
	 <1, 27>,
	 <1, 28>,
	 <1, 29>,
	 <1, 30>,
	 <1, 31>,
	 <1, 32>,
	 <1, 33>,
	 <1, 34>,
	 <12, 2>,
	 <12, 3>,
	 <12, 4>,
	 <12, 5>,
	 <12, 6>,
	 <12, 7>,
	 <12, 8>,
	 <12, 9>,
	 <12, 10>,
	 <12, 11>,
	 <12, 13>,
	 <12, 14>,
	 <12, 15>,
	 <12, 16>,
	 <12, 17>,
	 <12, 18>,
	 <12, 19>,
	 <12, 20>,
	 <12, 21>,
	 <12, 22>,
	 <12, 23>,
	 <12, 24>,
	 <12, 25>,
	 <12, 26>,
	 <12, 27>,
	 <12, 28>,
	 <12, 29>,
	 <12, 30>,
	 <12, 31>,
	 <12, 32>,
	 <12, 33>,
	 <12, 34>,
	 <13, 2>,
	 <13, 3>,
	 <13, 4>,
	 <13, 5>,
	 <13, 6>,
	 <13, 7>,
	 <13, 8>,
	 <13, 9>,
	 <13, 10>,
	 <13, 14>,
	 <13, 15>,
	 <13, 16>,
	 <13, 17>,
	 <13, 18>,
	 <13, 19>,
	 <13, 20>,
	 <13, 21>,
	 <13, 22>,
	 <13, 23>,
	 <13, 24>,
	 <13, 25>,
	 <13, 26>,
	 <13, 27>,
	 <13, 28>,
	 <13, 29>,
	 <13, 30>,
	 <13, 31>,
	 <13, 32>,
	 <13, 33>,
	 <13, 34>,
	 <11, 2>,
	 <11, 3>,
	 <11, 4>,
	 <11, 5>,
	 <11, 6>,
	 <11, 7>,
	 <11, 8>,
	 <11, 9>,
	 <11, 10>,
	 <11, 14>,
	 <11, 15>,
	 <11, 16>,
	 <11, 17>,
	 <11, 18>,
	 <11, 19>,
	 <11, 20>,
	 <11, 21>,
	 <11, 22>,
	 <11, 23>,
	 <11, 24>,
	 <11, 25>,
	 <11, 26>,
	 <11, 27>,
	 <11, 28>,
	 <11, 29>,
	 <11, 30>,
	 <11, 31>,
	 <11, 32>,
	 <11, 33>,
	 <11, 34>,
	 <14, 2>,
	 <14, 3>,
	 <14, 4>,
	 <14, 5>,
	 <14, 6>,
	 <14, 7>,
	 <14, 8>,
	 <14, 9>,
	 <14, 10>,
	 <14, 15>,
	 <14, 16>,
	 <14, 17>,
	 <14, 18>,
	 <14, 19>,
	 <14, 20>,
	 <14, 21>,
	 <14, 22>,
	 <14, 24>,
	 <14, 25>,
	 <14, 26>,
	 <14, 27>,
	 <14, 28>,
	 <14, 29>,
	 <14, 30>,
	 <14, 31>,
	 <14, 32>,
	 <14, 33>,
	 <14, 34>,
	 <15, 2>,
	 <15, 3>,
	 <15, 4>,
	 <15, 5>,
	 <15, 6>,
	 <15, 7>,
	 <15, 8>,
	 <15, 9>,
	 <15, 10>,
	 <15, 16>,
	 <15, 17>,
	 <15, 18>,
	 <15, 19>,
	 <15, 20>,
	 <15, 21>,
	 <15, 22>,
	 <15, 24>,
	 <15, 25>,
	 <15, 26>,
	 <15, 27>,
	 <15, 28>,
	 <15, 29>,
	 <15, 31>,
	 <15, 32>,
	 <15, 33>,
	 <15, 34>,
	 <16, 2>,
	 <16, 3>,
	 <16, 4>,
	 <16, 5>,
	 <16, 6>,
	 <16, 7>,
	 <16, 8>,
	 <16, 9>,
	 <16, 10>,
	 <16, 17>,
	 <16, 18>,
	 <16, 19>,
	 <16, 20>,
	 <16, 21>,
	 <16, 22>,
	 <16, 24>,
	 <16, 25>,
	 <16, 26>,
	 <16, 27>,
	 <16, 28>,
	 <16, 29>,
	 <16, 32>,
	 <16, 33>,
	 <16, 34>,
	 <17, 2>,
	 <17, 3>,
	 <17, 4>,
	 <17, 5>,
	 <17, 6>,
	 <17, 7>,
	 <17, 8>,
	 <17, 9>,
	 <17, 10>,
	 <17, 18>,
	 <17, 19>,
	 <17, 20>,
	 <17, 21>,
	 <17, 22>,
	 <17, 24>,
	 <17, 25>,
	 <17, 26>,
	 <17, 27>,
	 <17, 28>,
	 <17, 29>,
	 <17, 33>,
	 <17, 34>,
	 <18, 2>,
	 <18, 3>,
	 <18, 4>,
	 <18, 5>,
	 <18, 6>,
	 <18, 7>,
	 <18, 8>,
	 <18, 9>,
	 <18, 10>,
	 <18, 19>,
	 <18, 20>,
	 <18, 21>,
	 <18, 22>,
	 <18, 24>,
	 <18, 25>,
	 <18, 26>,
	 <18, 27>,
	 <18, 28>,
	 <18, 29>,
	 <18, 34>,
	 <19, 2>,
	 <19, 3>,
	 <19, 4>,
	 <19, 5>,
	 <19, 6>,
	 <19, 7>,
	 <19, 8>,
	 <19, 9>,
	 <19, 10>,
	 <19, 20>,
	 <19, 21>,
	 <19, 22>,
	 <19, 24>,
	 <19, 25>,
	 <19, 26>,
	 <19, 27>,
	 <19, 28>,
	 <19, 29>,
	 <20, 3>,
	 <20, 4>,
	 <20, 5>,
	 <20, 6>,
	 <20, 7>,
	 <20, 8>,
	 <20, 9>,
	 <20, 10>,
	 <20, 21>,
	 <20, 22>,
	 <20, 24>,
	 <20, 25>,
	 <20, 26>,
	 <20, 27>,
	 <20, 28>,
	 <20, 29>,
	 <21, 4>,
	 <21, 5>,
	 <21, 6>,
	 <21, 7>,
	 <21, 8>,
	 <21, 9>,
	 <21, 10>,
	 <21, 22>,
	 <21, 24>,
	 <21, 25>,
	 <21, 26>,
	 <21, 27>,
	 <21, 28>,
	 <21, 29>,
	 <22, 5>,
	 <22, 6>,
	 <22, 7>,
	 <22, 8>,
	 <22, 9>,
	 <22, 10>,
	 <22, 24>,
	 <22, 25>,
	 <22, 26>,
	 <22, 27>,
	 <22, 28>,
	 <22, 29>,
	 <24, 6>,
	 <24, 7>,
	 <24, 8>,
	 <24, 9>,
	 <24, 10>,
	 <24, 25>,
	 <24, 26>,
	 <24, 27>,
	 <24, 28>,
	 <24, 29>,
	 <25, 7>,
	 <25, 8>,
	 <25, 9>,
	 <25, 10>,
	 <25, 26>,
	 <25, 27>,
	 <25, 28>,
	 <25, 29>,
	 <26, 8>,
	 <26, 9>,
	 <26, 10>,
	 <26, 27>,
	 <26, 28>,
	 <26, 29>,
	 <27, 9>,
	 <27, 10>,
	 <27, 28>,
	 <27, 29>,
	 <28, 10>,
	 <28, 29>,
	 <23, 2>,
	 <23, 3>,
	 <23, 4>,
	 <23, 5>,
	 <23, 6>,
	 <23, 7>,
	 <23, 8>,
	 <23, 9>,
	 <23, 10>,
	 <23, 15>,
	 <23, 16>,
	 <23, 17>,
	 <23, 18>,
	 <23, 19>,
	 <23, 20>,
	 <23, 21>,
	 <23, 22>,
	 <23, 24>,
	 <23, 25>,
	 <23, 26>,
	 <23, 27>,
	 <23, 28>,
	 <23, 29>,
	 <23, 30>,
	 <23, 31>,
	 <23, 32>,
	 <23, 33>,
	 <23, 34>,
	 <30, 2>,
	 <30, 3>,
	 <30, 4>,
	 <30, 5>,
	 <30, 6>,
	 <30, 7>,
	 <30, 8>,
	 <30, 9>,
	 <30, 10>,
	 <30, 16>,
	 <30, 17>,
	 <30, 18>,
	 <30, 19>,
	 <30, 20>,
	 <30, 21>,
	 <30, 22>,
	 <30, 24>,
	 <30, 25>,
	 <30, 26>,
	 <30, 27>,
	 <30, 28>,
	 <30, 29>,
	 <30, 31>,
	 <30, 32>,
	 <30, 33>,
	 <30, 34>,
	 <31, 2>,
	 <31, 3>,
	 <31, 4>,
	 <31, 5>,
	 <31, 6>,
	 <31, 7>,
	 <31, 8>,
	 <31, 9>,
	 <31, 10>,
	 <31, 17>,
	 <31, 18>,
	 <31, 19>,
	 <31, 20>,
	 <31, 21>,
	 <31, 22>,
	 <31, 24>,
	 <31, 25>,
	 <31, 26>,
	 <31, 27>,
	 <31, 28>,
	 <31, 29>,
	 <31, 32>,
	 <31, 33>,
	 <31, 34>,
	 <32, 2>,
	 <32, 3>,
	 <32, 4>,
	 <32, 5>,
	 <32, 6>,
	 <32, 7>,
	 <32, 8>,
	 <32, 9>,
	 <32, 10>,
	 <32, 18>,
	 <32, 19>,
	 <32, 20>,
	 <32, 21>,
	 <32, 22>,
	 <32, 24>,
	 <32, 25>,
	 <32, 26>,
	 <32, 27>,
	 <32, 28>,
	 <32, 29>,
	 <32, 33>,
	 <32, 34>,
	 <33, 2>,
	 <33, 3>,
	 <33, 4>,
	 <33, 5>,
	 <33, 6>,
	 <33, 7>,
	 <33, 8>,
	 <33, 9>,
	 <33, 10>,
	 <33, 19>,
	 <33, 20>,
	 <33, 21>,
	 <33, 22>,
	 <33, 24>,
	 <33, 25>,
	 <33, 26>,
	 <33, 27>,
	 <33, 28>,
	 <33, 29>,
	 <33, 34>,
	 <34, 2>,
	 <34, 3>,
	 <34, 4>,
	 <34, 5>,
	 <34, 6>,
	 <34, 7>,
	 <34, 8>,
	 <34, 9>,
	 <34, 10>,
	 <34, 20>,
	 <34, 21>,
	 <34, 22>,
	 <34, 24>,
	 <34, 25>,
	 <34, 26>,
	 <34, 27>,
	 <34, 28>,
	 <34, 29>,
	 <53, 70>,
	 <53, 62>,
	 <53, 69>,
	 <54, 70>,
	 <54, 62>,
	 <54, 69>,
	 <55, 70>,
	 <55, 69>,
	 <35, 67>,
	 <35, 68>,
	 <36, 67>,
	 <36, 68>,
	 <36, 48>,
	 <43, 70>,
	 <43, 67>,
	 <43, 68>,
	 <43, 48>,
	 <43, 49>,
	 <43, 54>,
	 <43, 55>,
	 <43, 35>,
	 <43, 36>,
	 <43, 69>,
	 <44, 67>,
	 <44, 68>,
	 <44, 48>,
	 <44, 49>,
	 <44, 55>,
	 <44, 35>,
	 <44, 36>,
	 <74, 67>,
	 <74, 68>,
	 <74, 48>,
	 <74, 49>,
	 <74, 35>,
	 <74, 36>,
	 <75, 67>,
	 <75, 68>,
	 <75, 48>,
	 <75, 49>,
	 <75, 35>,
	 <75, 36>,
	 <59, 53>,
	 <59, 70>,
	 <59, 67>,
	 <59, 68>,
	 <59, 48>,
	 <59, 49>,
	 <59, 54>,
	 <59, 55>,
	 <59, 35>,
	 <59, 36>,
	 <59, 62>,
	 <59, 69>,
	 <59, 43>,
	 <59, 41>,
	 <59, 42>,
	 <60, 70>,
	 <60, 67>,
	 <60, 68>,
	 <60, 48>,
	 <60, 49>,
	 <60, 54>,
	 <60, 55>,
	 <60, 35>,
	 <60, 36>,
	 <60, 69>,
	 <60, 43>,
	 <60, 44>,
	 <60, 41>,
	 <60, 42>,
	 <61, 70>,
	 <61, 67>,
	 <61, 68>,
	 <61, 48>,
	 <61, 49>,
	 <61, 54>,
	 <61, 55>,
	 <61, 35>,
	 <61, 36>,
	 <61, 43>,
	 <61, 44>,
	 <61, 42>,
	 <63, 67>,
	 <63, 68>,
	 <63, 48>,
	 <63, 49>,
	 <63, 35>,
	 <63, 36>,
	 <63, 43>,
	 <63, 44>,
	 <63, 74>,
	 <41, 53>,
	 <41, 70>,
	 <41, 67>,
	 <41, 68>,
	 <41, 48>,
	 <41, 49>,
	 <41, 54>,
	 <41, 55>,
	 <41, 35>,
	 <41, 36>,
	 <41, 62>,
	 <41, 69>,
	 <42, 53>,
	 <42, 70>,
	 <42, 67>,
	 <42, 68>,
	 <42, 48>,
	 <42, 49>,
	 <42, 54>,
	 <42, 55>,
	 <42, 35>,
	 <42, 36>,
	 <42, 69>,
	 <47, 70>,
	 <47, 67>,
	 <47, 68>,
	 <47, 48>,
	 <47, 49>,
	 <47, 55>,
	 <47, 35>,
	 <47, 36>,
	 <47, 43>,
	 <47, 44>,
	 <47, 74>,
	 <47, 75>,
	 <47, 60>,
	 <47, 61>,
	 <47, 63>,
	 <64, 53>,
	 <64, 70>,
	 <64, 67>,
	 <64, 68>,
	 <64, 48>,
	 <64, 49>,
	 <64, 54>,
	 <64, 55>,
	 <64, 35>,
	 <64, 36>,
	 <64, 62>,
	 <64, 69>,
	 <64, 59>,
	 <64, 43>,
	 <64, 44>,
	 <64, 74>,
	 <64, 75>,
	 <64, 60>,
	 <64, 61>,
	 <64, 63>,
	 <64, 41>,
	 <64, 42>,
	 <64, 47>,
	 <64, 45>,
	 <64, 46>,
	 <65, 70>,
	 <65, 67>,
	 <65, 68>,
	 <65, 48>,
	 <65, 49>,
	 <65, 54>,
	 <65, 55>,
	 <65, 35>,
	 <65, 36>,
	 <65, 69>,
	 <65, 43>,
	 <65, 44>,
	 <65, 74>,
	 <65, 75>,
	 <65, 60>,
	 <65, 61>,
	 <65, 63>,
	 <65, 42>,
	 <65, 47>,
	 <65, 45>,
	 <65, 46>,
	 <66, 70>,
	 <66, 67>,
	 <66, 68>,
	 <66, 48>,
	 <66, 49>,
	 <66, 55>,
	 <66, 35>,
	 <66, 36>,
	 <66, 43>,
	 <66, 44>,
	 <66, 74>,
	 <66, 75>,
	 <66, 61>,
	 <66, 63>,
	 <66, 47>,
	 <66, 46>,
	 <37, 67>,
	 <37, 68>,
	 <37, 48>,
	 <37, 49>,
	 <37, 35>,
	 <37, 36>,
	 <37, 74>,
	 <37, 75>,
	 <38, 67>,
	 <38, 68>,
	 <38, 48>,
	 <38, 49>,
	 <38, 35>,
	 <38, 36>,
	 <38, 74>,
	 <38, 75>,
	 <39, 67>,
	 <39, 68>,
	 <39, 48>,
	 <39, 49>,
	 <39, 35>,
	 <39, 36>,
	 <39, 74>,
	 <39, 75>,
	 <45, 53>,
	 <45, 70>,
	 <45, 67>,
	 <45, 68>,
	 <45, 48>,
	 <45, 49>,
	 <45, 54>,
	 <45, 55>,
	 <45, 35>,
	 <45, 36>,
	 <45, 62>,
	 <45, 69>,
	 <45, 59>,
	 <45, 43>,
	 <45, 44>,
	 <45, 74>,
	 <45, 75>,
	 <45, 60>,
	 <45, 61>,
	 <45, 63>,
	 <45, 41>,
	 <45, 42>,
	 <46, 70>,
	 <46, 67>,
	 <46, 68>,
	 <46, 48>,
	 <46, 49>,
	 <46, 54>,
	 <46, 55>,
	 <46, 35>,
	 <46, 36>,
	 <46, 69>,
	 <46, 59>,
	 <46, 43>,
	 <46, 44>,
	 <46, 74>,
	 <46, 75>,
	 <46, 60>,
	 <46, 61>,
	 <46, 63>,
	 <46, 42>,
	 <73, 67>,
	 <73, 68>,
	 <73, 48>,
	 <73, 49>,
	 <73, 35>,
	 <73, 36>,
	 <73, 43>,
	 <73, 44>,
	 <73, 74>,
	 <73, 75>,
	 <73, 61>,
	 <73, 63>,
	 <73, 47>,
	 <73, 66>,
	 <73, 37>,
	 <73, 38>,
	 <73, 39>,
	 <76, 67>,
	 <76, 68>,
	 <76, 48>,
	 <76, 49>,
	 <76, 35>,
	 <76, 36>,
	 <76, 44>,
	 <76, 74>,
	 <76, 75>,
	 <76, 63>,
	 <76, 37>,
	 <76, 38>,
	 <76, 39>,
	 <77, 67>,
	 <77, 68>,
	 <77, 48>,
	 <77, 49>,
	 <77, 35>,
	 <77, 36>,
	 <77, 74>,
	 <77, 75>,
	 <77, 37>,
	 <77, 38>,
	 <77, 39>,
	 <78, 67>,
	 <78, 68>,
	 <78, 48>,
	 <78, 49>,
	 <78, 35>,
	 <78, 36>,
	 <78, 74>,
	 <78, 75>,
	 <78, 37>,
	 <78, 38>,
	 <78, 39>,
	 <52, 68>,
	 <52, 48>,
	 <52, 49>,
	 <52, 35>,
	 <52, 36>,
	 <52, 74>,
	 <52, 75>,
	 <52, 38>,
	 <52, 39>,
	 <51, 48>,
	 <51, 49>,
	 <51, 36>,
	 <51, 75>,
	 <51, 39>,
	 <40, 49>,
	 <56, 70>,
	 <56, 67>,
	 <56, 68>,
	 <56, 48>,
	 <56, 49>,
	 <56, 54>,
	 <56, 55>,
	 <56, 35>,
	 <56, 36>,
	 <56, 69>,
	 <56, 59>,
	 <56, 43>,
	 <56, 44>,
	 <56, 74>,
	 <56, 75>,
	 <56, 60>,
	 <56, 61>,
	 <56, 63>,
	 <56, 41>,
	 <56, 42>,
	 <56, 64>,
	 <56, 47>,
	 <56, 65>,
	 <56, 66>,
	 <56, 37>,
	 <56, 38>,
	 <56, 39>,
	 <56, 45>,
	 <56, 46>,
	 <56, 73>,
	 <56, 71>,
	 <56, 72>,
	 <57, 70>,
	 <57, 67>,
	 <57, 68>,
	 <57, 48>,
	 <57, 49>,
	 <57, 55>,
	 <57, 35>,
	 <57, 36>,
	 <57, 43>,
	 <57, 44>,
	 <57, 74>,
	 <57, 75>,
	 <57, 60>,
	 <57, 61>,
	 <57, 63>,
	 <57, 42>,
	 <57, 47>,
	 <57, 65>,
	 <57, 66>,
	 <57, 37>,
	 <57, 38>,
	 <57, 39>,
	 <57, 46>,
	 <57, 73>,
	 <57, 76>,
	 <57, 71>,
	 <57, 72>,
	 <58, 67>,
	 <58, 68>,
	 <58, 48>,
	 <58, 49>,
	 <58, 35>,
	 <58, 36>,
	 <58, 43>,
	 <58, 44>,
	 <58, 74>,
	 <58, 75>,
	 <58, 61>,
	 <58, 63>,
	 <58, 47>,
	 <58, 66>,
	 <58, 37>,
	 <58, 38>,
	 <58, 39>,
	 <58, 73>,
	 <58, 76>,
	 <58, 77>,
	 <58, 72>,
	 <71, 70>,
	 <71, 67>,
	 <71, 68>,
	 <71, 48>,
	 <71, 49>,
	 <71, 54>,
	 <71, 55>,
	 <71, 35>,
	 <71, 36>,
	 <71, 69>,
	 <71, 59>,
	 <71, 43>,
	 <71, 44>,
	 <71, 74>,
	 <71, 75>,
	 <71, 60>,
	 <71, 61>,
	 <71, 63>,
	 <71, 41>,
	 <71, 42>,
	 <71, 64>,
	 <71, 47>,
	 <71, 65>,
	 <71, 66>,
	 <71, 37>,
	 <71, 38>,
	 <71, 39>,
	 <71, 45>,
	 <71, 46>,
	 <72, 70>,
	 <72, 67>,
	 <72, 68>,
	 <72, 48>,
	 <72, 49>,
	 <72, 55>,
	 <72, 35>,
	 <72, 36>,
	 <72, 43>,
	 <72, 44>,
	 <72, 74>,
	 <72, 75>,
	 <72, 60>,
	 <72, 61>,
	 <72, 63>,
	 <72, 42>,
	 <72, 47>,
	 <72, 65>,
	 <72, 66>,
	 <72, 37>,
	 <72, 38>,
	 <72, 39>,
	 <72, 46>,
	 }; 

SoftAtomicConstraints = {
	 <1, 12>,
	 <11, 13>,
	 <23, 14>,
	 <30, 15>,
	 <31, 16>,
	 <32, 17>,
	 <33, 18>,
	 <34, 19>,
	 <2, 20>,
	 <3, 21>,
	 <4, 22>,
	 <5, 24>,
	 <6, 25>,
	 <7, 26>,
	 <8, 27>,
	 <9, 28>,
	 <10, 29>,
	 <55, 35>,
	 <35, 36>,
	 <66, 37>,
	 <37, 38>,
	 <38, 39>,
	 <51, 40>,
	 <41, 42>,
	 <42, 43>,
	 <43, 44>,
	 <45, 46>,
	 <46, 47>,
	 <68, 48>,
	 <48, 49>,
	 <40, 50>,
	 <52, 51>,
	 <78, 52>,
	 <53, 54>,
	 <54, 55>,
	 <56, 57>,
	 <57, 58>,
	 <59, 60>,
	 <60, 61>,
	 <61, 63>,
	 <64, 65>,
	 <65, 66>,
	 <70, 67>,
	 <67, 68>,
	 <62, 69>,
	 <69, 70>,
	 <71, 72>,
	 <72, 73>,
	 <44, 74>,
	 <74, 75>,
	 <73, 76>,
	 <76, 77>,
	 <77, 78>,
	 }; 

DisjunctiveConstraints = {
	 <2, 48, 2, 9>,
	 <2, 49, 2, 10>,
	 <2, 47, 2, 8>,
	 <2, 45, 2, 6>,
	 <2, 46, 2, 7>,
	 <3, 48, 3, 9>,
	 <3, 49, 3, 10>,
	 <3, 47, 3, 8>,
	 <3, 46, 3, 7>,
	 <4, 48, 4, 9>,
	 <4, 49, 4, 10>,
	 <4, 47, 4, 8>,
	 <5, 48, 5, 9>,
	 <5, 49, 5, 10>,
	 <6, 48, 6, 9>,
	 <6, 49, 6, 10>,
	 <7, 49, 7, 10>,
	 <1, 32, 1, 71>,
	 <1, 33, 1, 72>,
	 <1, 70, 1, 31>,
	 <1, 69, 1, 30>,
	 <1, 43, 1, 4>,
	 <1, 44, 1, 5>,
	 <1, 41, 1, 2>,
	 <1, 42, 1, 3>,
	 <1, 47, 1, 8>,
	 <1, 45, 1, 6>,
	 <1, 46, 1, 7>,
	 <1, 73, 1, 34>,
	 <12, 17, 12, 56>,
	 <12, 18, 12, 57>,
	 <12, 23, 62, 12>,
	 <12, 30, 69, 12>,
	 <12, 31, 70, 12>,
	 <12, 32, 71, 12>,
	 <12, 48, 12, 9>,
	 <12, 49, 12, 10>,
	 <12, 54, 12, 15>,
	 <12, 55, 12, 16>,
	 <12, 43, 12, 4>,
	 <12, 44, 12, 5>,
	 <12, 59, 12, 20>,
	 <12, 60, 12, 21>,
	 <12, 61, 12, 22>,
	 <12, 63, 12, 24>,
	 <12, 42, 12, 3>,
	 <12, 47, 12, 8>,
	 <12, 64, 12, 25>,
	 <12, 65, 12, 26>,
	 <12, 66, 12, 27>,
	 <12, 45, 12, 6>,
	 <12, 46, 12, 7>,
	 <12, 58, 12, 19>,
	 <13, 17, 13, 56>,
	 <13, 18, 13, 57>,
	 <13, 23, 62, 13>,
	 <13, 30, 69, 13>,
	 <13, 31, 70, 13>,
	 <13, 32, 71, 13>,
	 <13, 33, 72, 13>,
	 <13, 48, 13, 9>,
	 <13, 49, 13, 10>,
	 <13, 55, 13, 16>,
	 <13, 43, 13, 4>,
	 <13, 44, 13, 5>,
	 <13, 59, 13, 20>,
	 <13, 60, 13, 21>,
	 <13, 61, 13, 22>,
	 <13, 63, 13, 24>,
	 <13, 47, 13, 8>,
	 <13, 64, 13, 25>,
	 <13, 65, 13, 26>,
	 <13, 66, 13, 27>,
	 <13, 45, 13, 6>,
	 <13, 46, 13, 7>,
	 <13, 58, 13, 19>,
	 <11, 32, 11, 71>,
	 <11, 33, 11, 72>,
	 <11, 70, 11, 31>,
	 <11, 43, 11, 4>,
	 <11, 44, 11, 5>,
	 <11, 41, 11, 2>,
	 <11, 42, 11, 3>,
	 <11, 47, 11, 8>,
	 <11, 45, 11, 6>,
	 <11, 46, 11, 7>,
	 <11, 73, 11, 34>,
	 <14, 2, 41, 14>,
	 <14, 18, 14, 57>,
	 <14, 31, 70, 14>,
	 <14, 32, 71, 14>,
	 <14, 33, 72, 14>,
	 <14, 34, 73, 14>,
	 <14, 67, 14, 28>,
	 <14, 48, 14, 9>,
	 <14, 49, 14, 10>,
	 <14, 59, 14, 20>,
	 <14, 60, 14, 21>,
	 <14, 61, 14, 22>,
	 <14, 63, 14, 24>,
	 <14, 47, 14, 8>,
	 <14, 64, 14, 25>,
	 <14, 65, 14, 26>,
	 <14, 66, 14, 27>,
	 <14, 45, 14, 6>,
	 <14, 46, 14, 7>,
	 <14, 58, 14, 19>,
	 <15, 2, 41, 15>,
	 <15, 3, 42, 15>,
	 <15, 32, 71, 15>,
	 <15, 33, 72, 15>,
	 <15, 34, 73, 15>,
	 <15, 67, 15, 28>,
	 <15, 48, 15, 9>,
	 <15, 49, 15, 10>,
	 <15, 59, 15, 20>,
	 <15, 60, 15, 21>,
	 <15, 61, 15, 22>,
	 <15, 63, 15, 24>,
	 <15, 47, 15, 8>,
	 <15, 64, 15, 25>,
	 <15, 65, 15, 26>,
	 <15, 66, 15, 27>,
	 <15, 46, 15, 7>,
	 <15, 58, 15, 19>,
	 <16, 2, 41, 16>,
	 <16, 3, 42, 16>,
	 <16, 4, 43, 16>,
	 <16, 33, 72, 16>,
	 <16, 34, 73, 16>,
	 <16, 67, 16, 28>,
	 <16, 68, 16, 29>,
	 <16, 48, 16, 9>,
	 <16, 49, 16, 10>,
	 <16, 59, 16, 20>,
	 <16, 60, 16, 21>,
	 <16, 61, 16, 22>,
	 <16, 63, 16, 24>,
	 <16, 47, 16, 8>,
	 <16, 64, 16, 25>,
	 <16, 65, 16, 26>,
	 <16, 66, 16, 27>,
	 <17, 2, 41, 17>,
	 <17, 3, 42, 17>,
	 <17, 4, 43, 17>,
	 <17, 5, 44, 17>,
	 <17, 34, 73, 17>,
	 <17, 67, 17, 28>,
	 <17, 68, 17, 29>,
	 <17, 48, 17, 9>,
	 <17, 49, 17, 10>,
	 <17, 60, 17, 21>,
	 <17, 61, 17, 22>,
	 <17, 63, 17, 24>,
	 <17, 64, 17, 25>,
	 <17, 65, 17, 26>,
	 <17, 66, 17, 27>,
	 <18, 2, 41, 18>,
	 <18, 3, 42, 18>,
	 <18, 4, 43, 18>,
	 <18, 5, 44, 18>,
	 <18, 6, 45, 18>,
	 <18, 67, 18, 28>,
	 <18, 68, 18, 29>,
	 <18, 48, 18, 9>,
	 <18, 49, 18, 10>,
	 <18, 61, 18, 22>,
	 <18, 63, 18, 24>,
	 <18, 64, 18, 25>,
	 <18, 65, 18, 26>,
	 <18, 66, 18, 27>,
	 <19, 3, 42, 19>,
	 <19, 4, 43, 19>,
	 <19, 5, 44, 19>,
	 <19, 6, 45, 19>,
	 <19, 7, 46, 19>,
	 <19, 67, 19, 28>,
	 <19, 68, 19, 29>,
	 <19, 49, 19, 10>,
	 <19, 63, 19, 24>,
	 <19, 64, 19, 25>,
	 <19, 65, 19, 26>,
	 <19, 66, 19, 27>,
	 <20, 4, 43, 20>,
	 <20, 5, 44, 20>,
	 <20, 6, 45, 20>,
	 <20, 7, 46, 20>,
	 <20, 8, 47, 20>,
	 <20, 67, 20, 28>,
	 <20, 68, 20, 29>,
	 <20, 64, 20, 25>,
	 <20, 65, 20, 26>,
	 <20, 66, 20, 27>,
	 <21, 5, 44, 21>,
	 <21, 6, 45, 21>,
	 <21, 7, 46, 21>,
	 <21, 8, 47, 21>,
	 <21, 67, 21, 28>,
	 <21, 68, 21, 29>,
	 <21, 65, 21, 26>,
	 <21, 66, 21, 27>,
	 <22, 6, 45, 22>,
	 <22, 7, 46, 22>,
	 <22, 8, 47, 22>,
	 <22, 67, 22, 28>,
	 <22, 68, 22, 29>,
	 <22, 66, 22, 27>,
	 <24, 7, 46, 24>,
	 <24, 8, 47, 24>,
	 <24, 9, 48, 24>,
	 <24, 67, 24, 28>,
	 <24, 68, 24, 29>,
	 <25, 8, 47, 25>,
	 <25, 9, 48, 25>,
	 <25, 10, 49, 25>,
	 <25, 67, 25, 28>,
	 <25, 68, 25, 29>,
	 <26, 9, 48, 26>,
	 <26, 10, 49, 26>,
	 <27, 9, 48, 27>,
	 <27, 10, 49, 27>,
	 <23, 33, 23, 72>,
	 <23, 43, 23, 4>,
	 <23, 44, 23, 5>,
	 <23, 41, 23, 2>,
	 <23, 42, 23, 3>,
	 <23, 47, 23, 8>,
	 <23, 45, 23, 6>,
	 <23, 46, 23, 7>,
	 <23, 73, 23, 34>,
	 <30, 48, 30, 9>,
	 <30, 43, 30, 4>,
	 <30, 44, 30, 5>,
	 <30, 41, 30, 2>,
	 <30, 42, 30, 3>,
	 <30, 47, 30, 8>,
	 <30, 45, 30, 6>,
	 <30, 46, 30, 7>,
	 <30, 73, 30, 34>,
	 <31, 48, 31, 9>,
	 <31, 49, 31, 10>,
	 <31, 43, 31, 4>,
	 <31, 44, 31, 5>,
	 <31, 41, 31, 2>,
	 <31, 42, 31, 3>,
	 <31, 47, 31, 8>,
	 <31, 45, 31, 6>,
	 <31, 46, 31, 7>,
	 <32, 48, 32, 9>,
	 <32, 49, 32, 10>,
	 <32, 43, 32, 4>,
	 <32, 44, 32, 5>,
	 <32, 42, 32, 3>,
	 <32, 47, 32, 8>,
	 <32, 45, 32, 6>,
	 <32, 46, 32, 7>,
	 <33, 48, 33, 9>,
	 <33, 49, 33, 10>,
	 <33, 43, 33, 4>,
	 <33, 44, 33, 5>,
	 <33, 47, 33, 8>,
	 <33, 45, 33, 6>,
	 <33, 46, 33, 7>,
	 <34, 48, 34, 9>,
	 <34, 49, 34, 10>,
	 <34, 44, 34, 5>,
	 <34, 47, 34, 8>,
	 <34, 45, 34, 6>,
	 <34, 46, 34, 7>,
	 <68, 67, 68, 48>,
	 <48, 68, 48, 49>,
	 <54, 53, 54, 55>,
	 <69, 62, 69, 70>,
	 <43, 70, 43, 31>,
	 <43, 54, 15, 43>,
	 <43, 55, 43, 16>,
	 <43, 69, 30, 43>,
	 <43, 42, 43, 44>,
	 <44, 70, 31, 44>,
	 <44, 55, 16, 44>,
	 <44, 43, 44, 74>,
	 <74, 67, 74, 28>,
	 <74, 44, 74, 75>,
	 <75, 67, 75, 28>,
	 <75, 68, 75, 29>,
	 <75, 35, 74, 75>,
	 <59, 53, 59, 14>,
	 <59, 54, 59, 15>,
	 <59, 62, 59, 23>,
	 <59, 69, 59, 30>,
	 <60, 70, 60, 31>,
	 <60, 53, 14, 60>,
	 <60, 54, 60, 15>,
	 <60, 55, 60, 16>,
	 <60, 62, 23, 60>,
	 <60, 69, 60, 30>,
	 <60, 59, 60, 61>,
	 <61, 70, 61, 31>,
	 <61, 54, 15, 61>,
	 <61, 55, 61, 16>,
	 <61, 62, 23, 61>,
	 <61, 69, 30, 61>,
	 <61, 60, 61, 63>,
	 <63, 70, 31, 63>,
	 <63, 54, 15, 63>,
	 <63, 55, 16, 63>,
	 <63, 69, 30, 63>,
	 <41, 53, 41, 14>,
	 <41, 54, 41, 15>,
	 <41, 62, 41, 23>,
	 <41, 69, 41, 30>,
	 <42, 70, 42, 31>,
	 <42, 53, 14, 42>,
	 <42, 54, 42, 15>,
	 <42, 55, 42, 16>,
	 <42, 62, 23, 42>,
	 <42, 69, 42, 30>,
	 <42, 41, 42, 43>,
	 <47, 53, 14, 47>,
	 <47, 62, 23, 47>,
	 <47, 43, 47, 4>,
	 <47, 44, 47, 5>,
	 <47, 60, 21, 47>,
	 <47, 61, 47, 22>,
	 <47, 63, 47, 24>,
	 <47, 41, 2, 47>,
	 <47, 42, 3, 47>,
	 <64, 70, 64, 31>,
	 <64, 54, 64, 15>,
	 <64, 69, 64, 30>,
	 <64, 59, 64, 20>,
	 <64, 60, 64, 21>,
	 <64, 41, 64, 2>,
	 <64, 42, 64, 3>,
	 <65, 70, 65, 31>,
	 <65, 55, 65, 16>,
	 <65, 43, 65, 4>,
	 <65, 59, 20, 65>,
	 <65, 60, 65, 21>,
	 <65, 61, 65, 22>,
	 <65, 41, 2, 65>,
	 <65, 42, 65, 3>,
	 <65, 64, 65, 66>,
	 <66, 53, 14, 66>,
	 <66, 44, 66, 5>,
	 <66, 59, 20, 66>,
	 <66, 60, 21, 66>,
	 <66, 61, 66, 22>,
	 <66, 63, 66, 24>,
	 <66, 41, 2, 66>,
	 <66, 42, 3, 66>,
	 <66, 65, 66, 37>,
	 <37, 70, 31, 37>,
	 <37, 67, 37, 28>,
	 <37, 54, 15, 37>,
	 <37, 55, 16, 37>,
	 <37, 69, 30, 37>,
	 <37, 43, 4, 37>,
	 <37, 44, 5, 37>,
	 <37, 63, 24, 37>,
	 <37, 66, 37, 38>,
	 <38, 70, 31, 38>,
	 <38, 67, 38, 28>,
	 <38, 68, 38, 29>,
	 <38, 55, 16, 38>,
	 <38, 35, 38, 74>,
	 <38, 44, 5, 38>,
	 <38, 37, 38, 39>,
	 <39, 68, 39, 29>,
	 <39, 48, 39, 9>,
	 <39, 36, 39, 75>,
	 <39, 74, 35, 39>,
	 <45, 70, 45, 31>,
	 <45, 54, 45, 15>,
	 <45, 69, 45, 30>,
	 <45, 59, 45, 20>,
	 <45, 60, 45, 21>,
	 <45, 41, 45, 2>,
	 <45, 42, 45, 3>,
	 <46, 70, 46, 31>,
	 <46, 55, 46, 16>,
	 <46, 43, 46, 4>,
	 <46, 59, 20, 46>,
	 <46, 60, 46, 21>,
	 <46, 61, 46, 22>,
	 <46, 41, 2, 46>,
	 <46, 42, 46, 3>,
	 <46, 45, 46, 47>,
	 <73, 44, 73, 5>,
	 <73, 59, 20, 73>,
	 <73, 63, 73, 24>,
	 <73, 65, 26, 73>,
	 <73, 66, 73, 27>,
	 <73, 45, 6, 73>,
	 <73, 46, 7, 73>,
	 <73, 72, 73, 76>,
	 <76, 67, 76, 28>,
	 <76, 59, 20, 76>,
	 <76, 60, 21, 76>,
	 <76, 41, 2, 76>,
	 <76, 42, 3, 76>,
	 <76, 47, 8, 76>,
	 <76, 66, 27, 76>,
	 <76, 46, 7, 76>,
	 <76, 73, 76, 77>,
	 <77, 67, 77, 28>,
	 <77, 68, 77, 29>,
	 <77, 53, 14, 77>,
	 <77, 62, 23, 77>,
	 <77, 43, 4, 77>,
	 <77, 60, 21, 77>,
	 <77, 61, 22, 77>,
	 <77, 42, 3, 77>,
	 <77, 47, 8, 77>,
	 <77, 37, 77, 76>,
	 <77, 76, 77, 78>,
	 <78, 68, 78, 29>,
	 <78, 48, 78, 9>,
	 <78, 54, 15, 78>,
	 <78, 35, 78, 74>,
	 <78, 69, 30, 78>,
	 <78, 43, 4, 78>,
	 <78, 44, 5, 78>,
	 <78, 61, 22, 78>,
	 <78, 63, 24, 78>,
	 <78, 37, 76, 78>,
	 <78, 38, 78, 77>,
	 <78, 77, 78, 52>,
	 <52, 70, 31, 52>,
	 <52, 48, 52, 9>,
	 <52, 49, 52, 10>,
	 <52, 55, 16, 52>,
	 <52, 36, 52, 75>,
	 <52, 44, 5, 52>,
	 <52, 63, 24, 52>,
	 <52, 38, 77, 52>,
	 <52, 39, 52, 78>,
	 <52, 78, 52, 51>,
	 <51, 49, 51, 10>,
	 <51, 74, 35, 51>,
	 <51, 39, 78, 51>,
	 <51, 52, 51, 40>,
	 <40, 74, 35, 40>,
	 <40, 75, 36, 40>,
	 <40, 51, 40, 50>,
	 <50, 35, 74, 50>,
	 <50, 36, 75, 50>,
	 <50, 75, 36, 50>,
	 <56, 70, 56, 31>,
	 <56, 55, 56, 16>,
	 <56, 43, 56, 4>,
	 <56, 60, 56, 21>,
	 <56, 61, 56, 22>,
	 <56, 42, 56, 3>,
	 <56, 64, 56, 25>,
	 <56, 65, 56, 26>,
	 <56, 46, 56, 7>,
	 <57, 43, 57, 4>,
	 <57, 44, 57, 5>,
	 <57, 61, 57, 22>,
	 <57, 63, 57, 24>,
	 <57, 47, 57, 8>,
	 <57, 64, 25, 57>,
	 <57, 65, 57, 26>,
	 <57, 66, 57, 27>,
	 <57, 45, 6, 57>,
	 <57, 56, 57, 58>,
	 <58, 44, 58, 5>,
	 <58, 63, 58, 24>,
	 <58, 64, 25, 58>,
	 <58, 65, 26, 58>,
	 <58, 66, 58, 27>,
	 <58, 45, 6, 58>,
	 <58, 46, 7, 58>,
	 <71, 70, 71, 31>,
	 <71, 55, 71, 16>,
	 <71, 43, 71, 4>,
	 <71, 60, 71, 21>,
	 <71, 61, 71, 22>,
	 <71, 42, 71, 3>,
	 <71, 64, 71, 25>,
	 <71, 65, 71, 26>,
	 <71, 45, 71, 6>,
	 <71, 46, 71, 7>,
	 <72, 43, 72, 4>,
	 <72, 44, 72, 5>,
	 <72, 61, 72, 22>,
	 <72, 63, 72, 24>,
	 <72, 47, 72, 8>,
	 <72, 64, 25, 72>,
	 <72, 65, 72, 26>,
	 <72, 66, 72, 27>,
	 <72, 45, 6, 72>,
	 <72, 46, 72, 7>,
	 <72, 71, 72, 73>,
	 }; 

DirectSuccessors = {
	 }; 

